Problem:    interpolazione
Rows:       37
Columns:    21
Non-zeros:  150
Status:     OPTIMAL
Objective:  MassimoErrore = 1.009209517 (MINimum)

   No.   Row name   St   Activity     Lower bound   Upper bound    Marginal
------ ------------ -- ------------- ------------- ------------- -------------
     1 Approssimazione[1]
                    NS            10            10             =    -0.0982348 
     2 Approssimazione[2]
                    NS            20            20             =     0.0038373 
     3 Approssimazione[3]
                    NS            10            10             =     -0.231005 
     4 Approssimazione[4]
                    NS            15            15             =      0.434382 
     5 Approssimazione[5]
                    NS             5             5             =     -0.136608 
     6 Approssimazione[6]
                    NS            10            10             =    -0.0353031 
     7 Approssimazione[7]
                    NS            10            10             =         < eps
     8 Approssimazione[8]
                    NS            20            20             =         < eps
     9 Approssimazione[9]
                    NS            12            12             =         < eps
    10 Approssimazione[10]
                    NS            25            25             =    -0.0475825 
    11 Approssimazione[11]
                    NS             2             2             =         < eps
    12 Approssimazione[12]
                    NS             5             5             =    -0.0130468 
    13 MassimoErrore
                    B        1.00921                             
    14 Errore1[1]   B        2.01842            -0               
    15 Errore1[2]   NL             0            -0                   0.0038373 
    16 Errore1[3]   B        2.01842            -0               
    17 Errore1[4]   NL             0            -0                    0.434382 
    18 Errore1[5]   B        2.01842            -0               
    19 Errore1[6]   B        2.01842            -0               
    20 Errore1[7]   B        1.08979            -0               
    21 Errore1[8]   B        1.47352            -0               
    22 Errore1[9]   B       0.219493            -0               
    23 Errore1[10]  B        2.01842            -0               
    24 Errore1[11]  B       0.349194            -0               
    25 Errore1[12]  B        2.01842            -0               
    26 Errore2[1]   NL             0            -0                   0.0982348 
    27 Errore2[2]   B        2.01842            -0               
    28 Errore2[3]   NL             0            -0                    0.231005 
    29 Errore2[4]   B        2.01842            -0               
    30 Errore2[5]   NL             0            -0                    0.136608 
    31 Errore2[6]   NL             0            -0                   0.0353031 
    32 Errore2[7]   B       0.928626            -0               
    33 Errore2[8]   B       0.544896            -0               
    34 Errore2[9]   B        1.79893            -0               
    35 Errore2[10]  NL             0            -0                   0.0475825 
    36 Errore2[11]  B        1.66922            -0               
    37 Errore2[12]  NL             0            -0                   0.0130468 

   No. Column name  St   Activity     Lower bound   Upper bound    Marginal
------ ------------ -- ------------- ------------- ------------- -------------
     1 x[1]         B       0.821182             0               
     2 x[2]         NL             0             0                   0.0119724 
     3 x[3]         B        1.64236             0               
     4 x[4]         B        1.65004             0               
     5 x[5]         B       0.644666             0               
     6 x[6]         B        12.1182             0               
     7 x[7]         B        0.18419             0               
     8 x[8]         B        12.7552             0               
     9 a[1]         B       -1.00921                             
    10 a[2]         B        1.00921                             
    11 a[3]         B       -1.00921                             
    12 a[4]         B        1.00921                             
    13 a[5]         B       -1.00921                             
    14 a[6]         B       -1.00921                             
    15 a[7]         B     -0.0805833                             
    16 a[8]         B      -0.464313                             
    17 a[9]         B       0.789716                             
    18 a[10]        B       -1.00921                             
    19 a[11]        B       0.660015                             
    20 a[12]        B       -1.00921                             
    21 err          B        1.00921                             

Karush-Kuhn-Tucker optimality conditions:

KKT.PE: max.abs.err = 5.77e-15 on row 17
        max.rel.err = 1.91e-15 on row 17
        High quality

KKT.PB: max.abs.err = 0.00e+00 on row 0
        max.rel.err = 0.00e+00 on row 0
        High quality

KKT.DE: max.abs.err = 4.44e-16 on column 19
        max.rel.err = 4.44e-16 on column 19
        High quality

KKT.DB: max.abs.err = 0.00e+00 on row 0
        max.rel.err = 0.00e+00 on row 0
        High quality

End of output
